p cnf 21 215
-1 -2 0
1 2 0
-3 -4 -5 0
-3 -4 -6 0
-3 -4 -7 0
-3 -4 -5 -6 0
-3 -4 -5 -7 0
-3 -4 -6 -7 0
-3 -5 -6 0
-3 -5 -7 0
-3 -6 -7 0
-3 -5 -6 -7 0
-4 -5 -6 0
-4 -5 -7 0
-4 -6 -7 0
-4 -5 -6 -7 0
-5 -6 -7 0
3 4 5 6 0
3 4 5 7 0
3 4 6 7 0
3 5 6 7 0
4 5 6 7 0
-8 -9 -10 0
8 9 0
8 9 10 0
8 9 10 0
8 10 0
9 10 0
-11 -12 -13 0
-11 -12 -14 0
-11 -12 -15 0
-11 -12 -13 -14 0
-11 -12 -13 -15 0
-11 -12 -14 -15 0
-11 -13 -14 0
-11 -13 -15 0
-11 -14 -15 0
-11 -13 -14 -15 0
-12 -13 -14 0
-12 -13 -15 0
-12 -14 -15 0
-12 -13 -14 -15 0
-13 -14 -15 0
11 12 13 14 0
11 12 13 15 0
11 12 14 15 0
11 13 14 15 0
12 13 14 15 0
-16 -17 -18 0
16 17 0
16 17 18 0
16 18 0
16 17 18 0
17 18 0
-19 -20 0
-19 -21 0
-19 -20 -21 0
-19 -20 -21 0
-20 -21 0
19 20 21 0
-3 -8 0
-3 -8 -11 0
-3 -8 -16 0
-3 -8 -19 0
-3 -11 0
-3 -16 0
-3 -19 0
-3 -11 -16 0
-3 -11 -19 0
-3 -16 -19 0
-8 -11 0
-8 -16 0
-8 -19 0
-8 -11 -16 0
-8 -11 -19 0
-8 -16 -19 0
-11 -16 0
-11 -19 0
-16 -19 0
-11 -16 -19 0
-3 -8 -11 0
-3 -8 -16 0
-3 -8 -19 0
-3 -8 -11 -16 0
-3 -8 -11 -19 0
-3 -8 -16 -19 0
-3 -11 -16 0
-3 -11 -19 0
-3 -16 -19 0
-3 -11 -16 -19 0
-8 -11 -16 0
-8 -11 -19 0
-8 -16 -19 0
-8 -11 -16 -19 0
-11 -16 -19 0
-3 -8 -11 0
-3 -8 -16 0
-3 -8 -19 0
-3 -8 -11 -16 0
-3 -8 -11 -19 0
-3 -8 -16 -19 0
-3 -11 -16 0
-3 -11 -19 0
-3 -16 -19 0
-3 -11 -16 -19 0
-8 -11 -16 0
-8 -11 -19 0
-8 -16 -19 0
-8 -11 -16 -19 0
-11 -16 -19 0
-3 -8 -11 -16 0
-3 -8 -11 -19 0
-3 -8 -16 -19 0
-3 -8 -11 -16 -19 0
-3 -11 -16 -19 0
-8 -11 -16 -19 0
3 8 11 16 19 0
-1 -4 -9 -12 0
-1 -4 -9 0
-1 -4 -9 0
-1 -4 -12 0
-1 -4 -12 0
-1 -4 0
-1 -9 -12 0
-1 -9 -12 0
-1 -9 0
-1 -12 0
-4 -9 -12 0
-4 -9 -12 0
-4 -9 0
-4 -12 0
-9 -12 0
-1 -4 -9 -12 0
-1 -4 -9 -12 0
-1 -4 -9 0
-1 -4 -12 0
-1 -9 -12 0
-4 -9 -12 0
1 4 9 12 0
-2 -5 -13 -17 0
-2 -5 -13 0
-2 -5 -17 0
-2 -13 -17 0
-5 -13 -17 0
-2 -5 -13 -17 0
2 5 13 0
2 5 17 0
2 5 13 17 0
2 5 13 17 0
2 13 17 0
5 13 17 0
-6 -14 -20 0
6 14 0
6 14 20 0
6 20 0
14 20 0
6 14 20 0
6 14 20 0
-7 -10 -15 -18 -21 0
7 10 0
7 10 15 0
7 10 18 0
7 10 21 0
7 15 0
7 18 0
7 21 0
7 15 18 0
7 15 21 0
7 18 21 0
10 15 0
10 18 0
10 21 0
10 15 18 0
10 15 21 0
10 18 21 0
15 18 0
15 21 0
18 21 0
15 18 21 0
7 10 15 0
7 10 18 0
7 10 21 0
7 10 15 18 0
7 10 15 21 0
7 10 18 21 0
7 15 18 0
7 15 21 0
7 18 21 0
7 15 18 21 0
10 15 18 0
10 15 21 0
10 18 21 0
10 15 18 21 0
15 18 21 0
7 10 15 0
7 10 18 0
7 10 21 0
7 10 15 18 0
7 10 15 21 0
7 10 18 21 0
7 15 18 0
7 15 21 0
7 18 21 0
7 15 18 21 0
10 15 18 0
10 15 21 0
10 18 21 0
10 15 18 21 0
15 18 21 0
7 10 15 18 0
7 10 15 21 0
7 10 18 21 0
7 10 15 18 21 0
7 15 18 21 0
10 15 18 21 0
